n = 3;
m = 5;
maxTime = 1140;
delayTime = 5;
delayTrain = 2;
delayDuration = 5;
distance = [5,5,5,5];
passengerStart = [0,0,6,14,0];
passengerFlow = [0,10,10,10,0];
scheduledArrival = [|0,5,13,21,29, |0,15,23,31,39, |0,25,33,41,49|];
scheduledDeparture = [|0,8,16,24,32, |10,18,26,34,42, |20,28,36,44,52|];
capacity = 500;
